NAME F-JSSP-SDST
ROWS
 N  OBJ
 E  c0      
 E  c1      
 E  c2      
 E  c3      
 E  c4      
 E  c5      
 E  c6      
 E  c7      
 E  c8      
 G  c9      
 G  c10     
 G  c11     
 G  c12     
 G  c13     
 G  c14     
 G  c15     
 G  c16     
 G  c17     
 G  c18     
 G  c19     
 G  c20     
 L  c21     
 L  c22     
 L  c23     
 L  c24     
 L  c25     
 L  c26     
 L  c27     
 L  c28     
 L  c29     
 L  c30     
 L  c31     
 L  c32     
 L  c33     
 L  c34     
 L  c35     
 G  c36     
 G  c37     
 G  c38     
 G  c39     
 G  c40     
 G  c41     
 G  c42     
 G  c43     
 G  c44     
 G  c45     
 G  c46     
 G  c47     
 G  c48     
 G  c49     
 G  c50     
 G  c51     
 G  c52     
 G  c53     
 G  c54     
 G  c55     
 G  c56     
 G  c57     
 G  c58     
 G  c59     
 G  c60     
 G  c61     
 G  c62     
 G  c63     
 G  c64     
 G  c65     
 G  c66     
 G  c67     
 G  c68     
 G  c69     
 G  c70     
 G  c71     
 G  c72     
 G  c73     
 G  c74     
 G  c75     
 G  c76     
 G  c77     
 G  c78     
 G  c79     
 G  c80     
 G  c81     
 G  c82     
 G  c83     
 G  c84     
 G  c85     
 G  c86     
 G  c87     
 G  c88     
 G  c89     
 G  c90     
 G  c91     
 G  c92     
 G  c93     
 G  c94     
 G  c95     
 G  c96     
 G  c97     
 G  c98     
 G  c99     
 G  c100    
 G  c101    
 G  c102    
 G  c103    
 G  c104    
 G  c105    
 G  c106    
 G  c107    
 G  c108    
 G  c109    
 G  c110    
 G  c111    
 G  c112    
 G  c113    
 G  c114    
 G  c115    
 G  c116    
 G  c117    
 G  c118    
 G  c119    
 G  c120    
 G  c121    
 G  c122    
 G  c123    
 G  c124    
 G  c125    
 E  c126    
COLUMNS
    MARKER    'MARKER'                 'INTORG'
    B0(14)    c0        1
    B0(14)    c9        -17
    B0(14)    c10       -1000000017
    B0(14)    c21       -1000000000
    B0(14)    c36       -1000000000
    B0(14)    c37       -1000000000
    B0(14)    c38       -1000000000
    B0(14)    c39       -1000000000
    B0(14)    c40       -1000000000
    B0(14)    c41       -1000000000
    B0(14)    c42       -1000000000
    B0(14)    c43       -1000000000
    B0(14)    c44       -1000000000
    B0(14)    c45       -1000000000
    B1(15)    c1        1
    B1(15)    c10       -1000000000
    B1(15)    c11       -40
    B1(15)    c12       -40
    B1(15)    c22       -1000000000
    B1(15)    c36       -1000000000
    B1(15)    c37       -1000000000
    B1(15)    c44       -1000000000
    B1(15)    c45       -1000000000
    B1(15)    c48       -1000000000
    B1(15)    c49       -1000000000
    B1(15)    c50       -1000000000
    B1(15)    c51       -1000000000
    B1(15)    c54       -1000000000
    B1(15)    c55       -1000000000
    B2(16)    c1        1
    B2(16)    c11       -130
    B2(16)    c12       -1000000130
    B2(16)    c23       -1000000000
    B2(16)    c46       -1000000000
    B2(16)    c47       -1000000000
    B2(16)    c52       -1000000000
    B2(16)    c53       -1000000000
    B2(16)    c56       -1000000000
    B2(16)    c57       -1000000000
    B2(16)    c58       -1000000000
    B2(16)    c59       -1000000000
    B2(16)    c60       -1000000000
    B2(16)    c61       -1000000000
    B2(16)    c62       -1000000000
    B2(16)    c63       -1000000000
    B3(16)    c2        1
    B3(16)    c12       -1000000000
    B3(16)    c24       -1000000000
    B3(16)    c46       -1000000000
    B3(16)    c47       -1000000000
    B3(16)    c62       -1000000000
    B3(16)    c63       -1000000000
    B3(16)    c64       -1000000000
    B3(16)    c65       -1000000000
    B3(16)    c68       -1000000000
    B3(16)    c69       -1000000000
    B3(16)    c70       -1000000000
    B3(16)    c71       -1000000000
    B3(16)    c74       -1000000000
    B3(16)    c75       -1000000000
    B3(16)    c126      -50
    B4(9)     c2        1
    B4(9)     c25       -1000000000
    B4(9)     c66       -1000000000
    B4(9)     c67       -1000000000
    B4(9)     c72       -1000000000
    B4(9)     c73       -1000000000
    B4(9)     c76       -1000000000
    B4(9)     c77       -1000000000
    B4(9)     c126      -60
    B5(14)    c3        1
    B5(14)    c13       -30
    B5(14)    c14       -1000000030
    B5(14)    c26       -1000000000
    B5(14)    c38       -1000000000
    B5(14)    c39       -1000000000
    B5(14)    c48       -1000000000
    B5(14)    c49       -1000000000
    B5(14)    c78       -1000000000
    B5(14)    c79       -1000000000
    B5(14)    c80       -1000000000
    B5(14)    c81       -1000000000
    B5(14)    c82       -1000000000
    B5(14)    c83       -1000000000
    B6(14)    c4        1
    B6(14)    c14       -1000000000
    B6(14)    c15       -150
    B6(14)    c27       -1000000000
    B6(14)    c40       -1000000000
    B6(14)    c41       -1000000000
    B6(14)    c50       -1000000000
    B6(14)    c51       -1000000000
    B6(14)    c78       -1000000000
    B6(14)    c79       -1000000000
    B6(14)    c82       -1000000000
    B6(14)    c83       -1000000000
    B6(14)    c84       -1000000000
    B6(14)    c85       -1000000000
    B7(13)    c4        1
    B7(13)    c15       -160
    B7(13)    c28       -1000000000
    B7(13)    c52       -1000000000
    B7(13)    c53       -1000000000
    B7(13)    c64       -1000000000
    B7(13)    c65       -1000000000
    B7(13)    c86       -1000000000
    B7(13)    c87       -1000000000
    B7(13)    c88       -1000000000
    B7(13)    c89       -1000000000
    B7(13)    c90       -1000000000
    B7(13)    c91       -1000000000
    B8(9)     c5        1
    B8(9)     c29       -1000000000
    B8(9)     c66       -1000000000
    B8(9)     c67       -1000000000
    B8(9)     c92       -1000000000
    B8(9)     c93       -1000000000
    B8(9)     c94       -1000000000
    B8(9)     c95       -1000000000
    B8(9)     c126      -70
    B9(13)    c6        1
    B9(13)    c16       -50
    B9(13)    c17       -50
    B9(13)    c30       -1000000000
    B9(13)    c42       -1000000000
    B9(13)    c43       -1000000000
    B9(13)    c54       -1000000000
    B9(13)    c55       -1000000000
    B9(13)    c80       -1000000000
    B9(13)    c81       -1000000000
    B9(13)    c84       -1000000000
    B9(13)    c85       -1000000000
    B9(13)    c114      -12
    B10(11)   c6        1
    B10(11)   c16       -60
    B10(11)   c17       -1000000060
    B10(11)   c31       -1000000000
    B10(11)   c56       -1000000000
    B10(11)   c57       -1000000000
    B10(11)   c68       -1000000000
    B10(11)   c69       -1000000000
    B10(11)   c86       -1000000000
    B10(11)   c87       -1000000000
    B10(11)   c116      -12
    B11(13)   c7        1
    B11(13)   c17       -1000000000
    B11(13)   c18       -170
    B11(13)   c19       -1000000170
    B11(13)   c20       -170
    B11(13)   c32       -1000000000
    B11(13)   c58       -1000000000
    B11(13)   c59       -1000000000
    B11(13)   c70       -1000000000
    B11(13)   c71       -1000000000
    B11(13)   c88       -1000000000
    B11(13)   c89       -1000000000
    B11(13)   c118      -12
    B12(10)   c7        1
    B12(10)   c18       -180
    B12(10)   c19       -180
    B12(10)   c20       -1000000180
    B12(10)   c33       -1000000000
    B12(10)   c72       -1000000000
    B12(10)   c73       -1000000000
    B12(10)   c92       -1000000000
    B12(10)   c93       -1000000000
    B12(10)   c120      -12
    B13(11)   c8        1
    B13(11)   c19       -1000000000
    B13(11)   c34       -1000000000
    B13(11)   c60       -1000000000
    B13(11)   c61       -1000000000
    B13(11)   c74       -1000000000
    B13(11)   c75       -1000000000
    B13(11)   c90       -1000000000
    B13(11)   c91       -1000000000
    B13(11)   c122      -12
    B13(11)   c126      -90
    B14(9)    c8        1
    B14(9)    c20       -1000000000
    B14(9)    c35       -1000000000
    B14(9)    c76       -1000000000
    B14(9)    c77       -1000000000
    B14(9)    c94       -1000000000
    B14(9)    c95       -1000000000
    B14(9)    c124      -12
    B14(9)    c126      -100
    B15(0)    OBJ       0
    B16(2)    c36       -1000000000
    B16(2)    c37       1000000000
    B17(0)    OBJ       0
    B18(2)    c38       -1000000000
    B18(2)    c39       1000000000
    B19(2)    c40       -1000000000
    B19(2)    c41       1000000000
    B20(0)    OBJ       0
    B21(2)    c42       -1000000000
    B21(2)    c43       1000000000
    B22(0)    OBJ       0
    B23(0)    OBJ       0
    B24(2)    c44       -1000000000
    B24(2)    c45       1000000000
    B25(0)    OBJ       0
    B26(2)    c46       -1000000000
    B26(2)    c47       1000000000
    B27(2)    c48       -1000000000
    B27(2)    c49       1000000000
    B28(4)    c50       -1000000000
    B28(4)    c51       1000000000
    B28(4)    c52       -1000000000
    B28(4)    c53       1000000000
    B29(0)    OBJ       0
    B30(4)    c54       -1000000000
    B30(4)    c55       1000000000
    B30(4)    c56       -1000000000
    B30(4)    c57       1000000000
    B31(2)    c58       -1000000000
    B31(2)    c59       1000000000
    B32(2)    c60       -1000000000
    B32(2)    c61       1000000000
    B33(0)    OBJ       0
    B34(2)    c62       -1000000000
    B34(2)    c63       1000000000
    B35(0)    OBJ       0
    B36(0)    OBJ       0
    B37(2)    c64       -1000000000
    B37(2)    c65       1000000000
    B38(2)    c66       -1000000000
    B38(2)    c67       1000000000
    B39(2)    c68       -1000000000
    B39(2)    c69       1000000000
    B40(4)    c70       -1000000000
    B40(4)    c71       1000000000
    B40(4)    c72       -1000000000
    B40(4)    c73       1000000000
    B41(4)    c74       -1000000000
    B41(4)    c75       1000000000
    B41(4)    c76       -1000000000
    B41(4)    c77       1000000000
    B42(0)    OBJ       0
    B43(0)    OBJ       0
    B44(0)    OBJ       0
    B45(0)    OBJ       0
    B46(2)    c78       -1000000000
    B46(2)    c79       1000000000
    B47(0)    OBJ       0
    B48(2)    c80       -1000000000
    B48(2)    c81       1000000000
    B49(0)    OBJ       0
    B50(0)    OBJ       0
    B51(0)    OBJ       0
    B52(0)    OBJ       0
    B53(0)    OBJ       0
    B54(2)    c82       -1000000000
    B54(2)    c83       1000000000
    B55(0)    OBJ       0
    B56(0)    OBJ       0
    B57(4)    c84       -1000000000
    B57(4)    c85       1000000000
    B57(4)    c86       -1000000000
    B57(4)    c87       1000000000
    B58(2)    c88       -1000000000
    B58(2)    c89       1000000000
    B59(2)    c90       -1000000000
    B59(2)    c91       1000000000
    B60(0)    OBJ       0
    B61(0)    OBJ       0
    B62(0)    OBJ       0
    B63(0)    OBJ       0
    B64(0)    OBJ       0
    B65(0)    OBJ       0
    B66(0)    OBJ       0
    B67(2)    c92       -1000000000
    B67(2)    c93       1000000000
    B68(2)    c94       -1000000000
    B68(2)    c95       1000000000
    B69(0)    OBJ       0
    B70(0)    OBJ       0
    B71(0)    OBJ       0
    B72(0)    OBJ       0
    B73(0)    OBJ       0
    B74(0)    OBJ       0
    B75(0)    OBJ       0
    B76(0)    OBJ       0
    B77(0)    OBJ       0
    B78(0)    OBJ       0
    B79(0)    OBJ       0
    B80(0)    OBJ       0
    B81(0)    OBJ       0
    B82(0)    OBJ       0
    B83(0)    OBJ       0
    B84(0)    OBJ       0
    B85(0)    OBJ       0
    B86(0)    OBJ       0
    B87(0)    OBJ       0
    B88(0)    OBJ       0
    B89(0)    OBJ       0
    B90(0)    OBJ       0
    B91(0)    OBJ       0
    B92(0)    OBJ       0
    B93(0)    OBJ       0
    B94(0)    OBJ       0
    B95(0)    OBJ       0
    I96(15)   c9        -1
    I96(15)   c10       -1
    I96(15)   c21       1
    I96(15)   c36       1
    I96(15)   c37       -1
    I96(15)   c38       1
    I96(15)   c39       -1
    I96(15)   c40       1
    I96(15)   c41       -1
    I96(15)   c42       1
    I96(15)   c43       -1
    I96(15)   c44       -1
    I96(15)   c45       1
    I96(15)   c96       1
    I96(15)   c97       1
    I97(17)   c9        1
    I97(17)   c10       1
    I97(17)   c11       -1
    I97(17)   c12       -1
    I97(17)   c22       1
    I97(17)   c36       -1
    I97(17)   c37       1
    I97(17)   c44       1
    I97(17)   c45       -1
    I97(17)   c48       1
    I97(17)   c49       -1
    I97(17)   c50       1
    I97(17)   c51       -1
    I97(17)   c54       1
    I97(17)   c55       -1
    I97(17)   c98       1
    I97(17)   c99       1
    I98(19)   c9        1
    I98(19)   c10       1
    I98(19)   c11       -1
    I98(19)   c12       -1
    I98(19)   c23       1
    I98(19)   c46       1
    I98(19)   c47       -1
    I98(19)   c52       1
    I98(19)   c53       -1
    I98(19)   c56       1
    I98(19)   c57       -1
    I98(19)   c58       1
    I98(19)   c59       -1
    I98(19)   c60       1
    I98(19)   c61       -1
    I98(19)   c62       -1
    I98(19)   c63       1
    I98(19)   c100      1
    I98(19)   c101      1
    I99(18)   c11       1
    I99(18)   c12       1
    I99(18)   c24       1
    I99(18)   c46       -1
    I99(18)   c47       1
    I99(18)   c62       1
    I99(18)   c63       -1
    I99(18)   c64       1
    I99(18)   c65       -1
    I99(18)   c68       1
    I99(18)   c69       -1
    I99(18)   c70       1
    I99(18)   c71       -1
    I99(18)   c74       1
    I99(18)   c75       -1
    I99(18)   c102      1
    I99(18)   c103      1
    I99(18)   c126      -1
    I100(12)  c11       1
    I100(12)  c12       1
    I100(12)  c25       1
    I100(12)  c66       1
    I100(12)  c67       -1
    I100(12)  c72       1
    I100(12)  c73       -1
    I100(12)  c76       1
    I100(12)  c77       -1
    I100(12)  c104      1
    I100(12)  c105      1
    I100(12)  c126      -1
    I101(15)  c13       -1
    I101(15)  c14       -1
    I101(15)  c26       1
    I101(15)  c38       -1
    I101(15)  c39       1
    I101(15)  c48       -1
    I101(15)  c49       1
    I101(15)  c78       1
    I101(15)  c79       -1
    I101(15)  c80       1
    I101(15)  c81       -1
    I101(15)  c82       -1
    I101(15)  c83       1
    I101(15)  c106      1
    I101(15)  c107      1
    I102(16)  c13       1
    I102(16)  c14       1
    I102(16)  c15       -1
    I102(16)  c27       1
    I102(16)  c40       -1
    I102(16)  c41       1
    I102(16)  c50       -1
    I102(16)  c51       1
    I102(16)  c78       -1
    I102(16)  c79       1
    I102(16)  c82       1
    I102(16)  c83       -1
    I102(16)  c84       1
    I102(16)  c85       -1
    I102(16)  c108      1
    I102(16)  c109      1
    I103(16)  c13       1
    I103(16)  c14       1
    I103(16)  c15       -1
    I103(16)  c28       1
    I103(16)  c52       -1
    I103(16)  c53       1
    I103(16)  c64       -1
    I103(16)  c65       1
    I103(16)  c86       1
    I103(16)  c87       -1
    I103(16)  c88       1
    I103(16)  c89       -1
    I103(16)  c90       1
    I103(16)  c91       -1
    I103(16)  c110      1
    I103(16)  c111      1
    I104(11)  c15       1
    I104(11)  c29       1
    I104(11)  c66       -1
    I104(11)  c67       1
    I104(11)  c92       1
    I104(11)  c93       -1
    I104(11)  c94       1
    I104(11)  c95       -1
    I104(11)  c112      1
    I104(11)  c113      1
    I104(11)  c126      -1
    I105(13)  c16       -1
    I105(13)  c17       -1
    I105(13)  c30       1
    I105(13)  c42       -1
    I105(13)  c43       1
    I105(13)  c54       -1
    I105(13)  c55       1
    I105(13)  c80       -1
    I105(13)  c81       1
    I105(13)  c84       -1
    I105(13)  c85       1
    I105(13)  c114      1
    I105(13)  c115      1
    I106(11)  c16       -1
    I106(11)  c17       -1
    I106(11)  c31       1
    I106(11)  c56       -1
    I106(11)  c57       1
    I106(11)  c68       -1
    I106(11)  c69       1
    I106(11)  c86       -1
    I106(11)  c87       1
    I106(11)  c116      1
    I106(11)  c117      1
    I107(14)  c16       1
    I107(14)  c17       1
    I107(14)  c18       -1
    I107(14)  c19       -1
    I107(14)  c20       -1
    I107(14)  c32       1
    I107(14)  c58       -1
    I107(14)  c59       1
    I107(14)  c70       -1
    I107(14)  c71       1
    I107(14)  c88       -1
    I107(14)  c89       1
    I107(14)  c118      1
    I107(14)  c119      1
    I108(12)  c16       1
    I108(12)  c17       1
    I108(12)  c18       -1
    I108(12)  c19       -1
    I108(12)  c20       -1
    I108(12)  c33       1
    I108(12)  c72       -1
    I108(12)  c73       1
    I108(12)  c92       -1
    I108(12)  c93       1
    I108(12)  c120      1
    I108(12)  c121      1
    I109(13)  c18       1
    I109(13)  c19       1
    I109(13)  c20       1
    I109(13)  c34       1
    I109(13)  c60       -1
    I109(13)  c61       1
    I109(13)  c74       -1
    I109(13)  c75       1
    I109(13)  c90       -1
    I109(13)  c91       1
    I109(13)  c122      1
    I109(13)  c123      1
    I109(13)  c126      -1
    I110(11)  c18       1
    I110(11)  c19       1
    I110(11)  c20       1
    I110(11)  c35       1
    I110(11)  c76       -1
    I110(11)  c77       1
    I110(11)  c94       -1
    I110(11)  c95       1
    I110(11)  c124      1
    I110(11)  c125      1
    I110(11)  c126      -1
    I111(1)   OBJ       1
    I111(1)   c126      1
    MARKER    'MARKER'                 'INTEND'
RHS
    RHS1      c0        1
    RHS1      c1        1
    RHS1      c2        1
    RHS1      c3        1
    RHS1      c4        1
    RHS1      c5        1
    RHS1      c6        1
    RHS1      c7        1
    RHS1      c8        1
    RHS1      c10       -1999999990
    RHS1      c12       -1999999990
    RHS1      c14       -1999999990
    RHS1      c17       -1999999995
    RHS1      c19       -1999999991
    RHS1      c20       -1999999991
    RHS1      c36       -2999999953
    RHS1      c37       -1999999973
    RHS1      c38       -2999999963
    RHS1      c39       -1999999972
    RHS1      c40       -2999999841
    RHS1      c41       -1999999975
    RHS1      c42       -2999999941
    RHS1      c43       -1999999973
    RHS1      c44       -2999999973
    RHS1      c45       -1999999953
    RHS1      c46       -2999999944
    RHS1      c47       -1999999860
    RHS1      c48       -2999999961
    RHS1      c49       -1999999951
    RHS1      c50       -2999999840
    RHS1      c51       -1999999950
    RHS1      c52       -2999999832
    RHS1      c53       -1999999861
    RHS1      c54       -2999999943
    RHS1      c55       -1999999953
    RHS1      c56       -2999999932
    RHS1      c57       -1999999860
    RHS1      c58       -2999999819
    RHS1      c59       -1999999860
    RHS1      c60       -2999999902
    RHS1      c61       -1999999862
    RHS1      c62       -2999999860
    RHS1      c63       -1999999944
    RHS1      c64       -2999999830
    RHS1      c65       -1999999937
    RHS1      c66       -2999999921
    RHS1      c67       -1999999929
    RHS1      c68       -2999999932
    RHS1      c69       -1999999944
    RHS1      c70       -2999999822
    RHS1      c71       -1999999940
    RHS1      c72       -2999999813
    RHS1      c73       -1999999932
    RHS1      c74       -2999999902
    RHS1      c75       -1999999940
    RHS1      c76       -2999999889
    RHS1      c77       -1999999932
    RHS1      c78       -2999999839
    RHS1      c79       -1999999960
    RHS1      c80       -2999999938
    RHS1      c81       -1999999961
    RHS1      c82       -2999999960
    RHS1      c83       -1999999839
    RHS1      c84       -2999999942
    RHS1      c85       -1999999840
    RHS1      c86       -2999999930
    RHS1      c87       -1999999833
    RHS1      c88       -2999999822
    RHS1      c89       -1999999828
    RHS1      c90       -2999999903
    RHS1      c91       -1999999832
    RHS1      c92       -2999999808
    RHS1      c93       -1999999924
    RHS1      c94       -2999999890
    RHS1      c95       -1999999920
BOUNDS
 BV BND1      B0(14)  
 BV BND1      B1(15)  
 BV BND1      B2(16)  
 BV BND1      B3(16)  
 BV BND1      B4(9)   
 BV BND1      B5(14)  
 BV BND1      B6(14)  
 BV BND1      B7(13)  
 BV BND1      B8(9)   
 BV BND1      B9(13)  
 BV BND1      B10(11) 
 BV BND1      B11(13) 
 BV BND1      B12(10) 
 BV BND1      B13(11) 
 BV BND1      B14(9)  
 BV BND1      B15(0)  
 BV BND1      B16(2)  
 BV BND1      B17(0)  
 BV BND1      B18(2)  
 BV BND1      B19(2)  
 BV BND1      B20(0)  
 BV BND1      B21(2)  
 BV BND1      B22(0)  
 BV BND1      B23(0)  
 BV BND1      B24(2)  
 BV BND1      B25(0)  
 BV BND1      B26(2)  
 BV BND1      B27(2)  
 BV BND1      B28(4)  
 BV BND1      B29(0)  
 BV BND1      B30(4)  
 BV BND1      B31(2)  
 BV BND1      B32(2)  
 BV BND1      B33(0)  
 BV BND1      B34(2)  
 BV BND1      B35(0)  
 BV BND1      B36(0)  
 BV BND1      B37(2)  
 BV BND1      B38(2)  
 BV BND1      B39(2)  
 BV BND1      B40(4)  
 BV BND1      B41(4)  
 BV BND1      B42(0)  
 BV BND1      B43(0)  
 BV BND1      B44(0)  
 BV BND1      B45(0)  
 BV BND1      B46(2)  
 BV BND1      B47(0)  
 BV BND1      B48(2)  
 BV BND1      B49(0)  
 BV BND1      B50(0)  
 BV BND1      B51(0)  
 BV BND1      B52(0)  
 BV BND1      B53(0)  
 BV BND1      B54(2)  
 BV BND1      B55(0)  
 BV BND1      B56(0)  
 BV BND1      B57(4)  
 BV BND1      B58(2)  
 BV BND1      B59(2)  
 BV BND1      B60(0)  
 BV BND1      B61(0)  
 BV BND1      B62(0)  
 BV BND1      B63(0)  
 BV BND1      B64(0)  
 BV BND1      B65(0)  
 BV BND1      B66(0)  
 BV BND1      B67(2)  
 BV BND1      B68(2)  
 BV BND1      B69(0)  
 BV BND1      B70(0)  
 BV BND1      B71(0)  
 BV BND1      B72(0)  
 BV BND1      B73(0)  
 BV BND1      B74(0)  
 BV BND1      B75(0)  
 BV BND1      B76(0)  
 BV BND1      B77(0)  
 BV BND1      B78(0)  
 BV BND1      B79(0)  
 BV BND1      B80(0)  
 BV BND1      B81(0)  
 BV BND1      B82(0)  
 BV BND1      B83(0)  
 BV BND1      B84(0)  
 BV BND1      B85(0)  
 BV BND1      B86(0)  
 BV BND1      B87(0)  
 BV BND1      B88(0)  
 BV BND1      B89(0)  
 BV BND1      B90(0)  
 BV BND1      B91(0)  
 BV BND1      B92(0)  
 BV BND1      B93(0)  
 BV BND1      B94(0)  
 BV BND1      B95(0)  
 LI BND1      I96(15)   0
 LI BND1      I97(17)   0
 LI BND1      I98(19)   0
 LI BND1      I99(18)   0
 LI BND1      I100(12)  0
 LI BND1      I101(15)  0
 LI BND1      I102(16)  0
 LI BND1      I103(16)  0
 LI BND1      I104(11)  0
 LI BND1      I105(13)  0
 LI BND1      I106(11)  0
 LI BND1      I107(14)  0
 LI BND1      I108(12)  0
 LI BND1      I109(13)  0
 LI BND1      I110(11)  0
 LI BND1      I111(1)   0
ENDATA
